DATASET = "thpack6";
INSTANCE = "030";

WIDTH = 233;
HEIGHT = 220;
LENGTH = 587;

NO_OF_SHAPES = 15;
size = [|
  64,53,32 |
  51,42,28 |
  49,32,30 |
  109,68,59 |
  66,43,32 |
  120,71,47 |
  109,57,41 |
  100,70,28 |
  76,70,51 |
  85,40,26 |
  79,71,55 |
  93,73,55 |
  101,75,75 |
  89,58,53 |
  98,53,36 |
|];

verticality = [|
  0,1,1 |
  1,1,1 |
  1,1,1 |
  1,1,1 |
  0,1,1 |
  0,1,1 |
  0,1,1 |
  0,0,1 |
  1,1,1 |
  0,1,1 |
  1,1,1 |
  1,1,1 |
  1,1,1 |
  1,1,1 |
  0,1,1 |
|];

box_count = [
  9,
  13,
  7,
  10,
  15,
  6,
  6,
  9,
  8,
  12,
  9,
  10,
  6,
  6,
  9,
];
